solving instance mcnd arcs c55 3 6 cubic
presolving:
(round 1, exhaustive) 30 del vars, 30 del conss, 0 add conss, 546 chg bounds, 0 chg sides, 0 chg coeffs, 206916 upgd conss, 0 impls, 0 clqs
   (23.1s) probing cycle finished: starting next cycle
   (23.1s) symmetry computation started: requiring (bin +, int +, cont +), (fixed: bin -, int -, cont -)
   (24.4s) no symmetry present (symcode time: 0.44)
presolving (2 rounds: 2 fast, 2 medium, 2 exhaustive):
 60 deleted vars, 30 deleted constraints, 0 added constraints, 1062 tightened bounds, 0 added holes, 0 changed sides, 0 changed coefficients
 207432 implications, 0 cliques
presolved problem has 207948 variables (516 bin, 0 int, 0 impl, 207432 cont) and 220494 constraints
 206916 constraints of type <varbound>
  13062 constraints of type <linear>
    516 constraints of type <nonlinear>
Presolving Time: 23.73

 time | node  | left  |LP iter|LP it/n|mem/heur|mdpt |vars |cons |rows |cuts |sepa|confs|strbr|  dualbound   | primalbound  |  gap   | compl. 
t 622s|     1 |     0 | 58169 |     - |  trysol|   0 | 209k| 220k| 222k|   0 |  0 |   0 |   0 |-1.665170e+06 | 1.209305e+06 |    Inf | unknown
 1093s|     1 |     0 |103177 |     - |  1415M |   0 | 209k| 220k| 222k|   0 |  0 |   0 |   0 |-1.154700e+06 | 1.209305e+06 |    Inf | unknown
 3600s|     1 |     0 |250522 |     - |  1466M |   0 | 209k| 220k| 223k| 568 |  1 |   0 |   0 |-1.154700e+06 | 1.209305e+06 |    Inf | unknown
(node 1) LP solver hit time limit in LP 3 -- using pseudo solution instead

SCIP Status        : solving was interrupted [time limit reached]
Solving Time (sec) : 3600.08
Solving Nodes      : 1
Primal Bound       : +1.20930526887689e+06 (1 solutions)
Dual Bound         : -1.15470034659637e+06
Gap                : infinite
primal_bound = 1.209305268876894e6, dual_bound = -1.154700346596371e6, gap = 195.48460395519191, time = 3605.46
